% Generated by MiniZinc 2.9.3
% Solver library: /home/icwmmarijnisse/Pumpkin/minizinc/lib
% Command line invocation: minizinc --compile --fzn ./instance.fzn --ozn ./instance.ozn --solver pumpkin ../../../../benchmarks/models/rcpsp/rcpsp_smaller.mzn ../../../../benchmarks/models/rcpsp/pack018.dzn 

predicate pumpkin_cumulative(array [int] of var int: s,array [int] of int: d,array [int] of int: r,int: b);
array [1..2] of int: X_INTRODUCED_50_ = [1,-1];
array [1..14] of int: X_INTRODUCED_51_ = [2,4,1,3,3,2,2,1,2,3,1,2,3,2];
array [1..14] of int: X_INTRODUCED_52_ = [4,2,204,226,239,5,6,288,169,5,53,5,319,6];
array [1..14] of int: X_INTRODUCED_54_ = [2,2,3,2,1,1,2,1,3,2,2,3,3,3];
array [1..14] of int: X_INTRODUCED_55_ = [1,3,2,2,3,1,1,3,3,2,3,2,3,3];
var 0..2692: X_INTRODUCED_16_;
var 0..2692: X_INTRODUCED_17_;
var 0..2692: X_INTRODUCED_18_;
var 0..2692: X_INTRODUCED_19_;
var 0..2692: X_INTRODUCED_20_;
var 0..2692: X_INTRODUCED_21_;
var 0..2692: X_INTRODUCED_22_;
var 0..2692: X_INTRODUCED_23_;
var 0..2692: X_INTRODUCED_24_;
var 0..2692: X_INTRODUCED_25_;
var 0..2692: X_INTRODUCED_26_;
var 0..2692: X_INTRODUCED_27_;
var 0..2692: X_INTRODUCED_28_;
var 0..2692: X_INTRODUCED_29_;
var 0..2692: X_INTRODUCED_30_;
var 0..2692: X_INTRODUCED_31_;
var 0..2692: X_INTRODUCED_32_;
var 0..2692: X_INTRODUCED_33_;
var 0..2692: X_INTRODUCED_34_;
var 0..2692: X_INTRODUCED_35_;
var 0..2692: X_INTRODUCED_36_;
var 0..2692: X_INTRODUCED_37_;
var 0..2692: X_INTRODUCED_38_;
var 0..2692: X_INTRODUCED_39_;
var 0..2692: X_INTRODUCED_40_;
var 0..2692: X_INTRODUCED_41_;
var 0..2692: X_INTRODUCED_42_;
var 0..2692: X_INTRODUCED_43_;
var 0..2692: X_INTRODUCED_44_;
var 0..2692: X_INTRODUCED_45_;
var 0..2692: X_INTRODUCED_46_;
var 0..2693: Objective:: output_var;
array [1..31] of var int: Start:: output_array([1..31]) = [X_INTRODUCED_16_,X_INTRODUCED_17_,X_INTRODUCED_18_,X_INTRODUCED_19_,X_INTRODUCED_20_,X_INTRODUCED_21_,X_INTRODUCED_22_,X_INTRODUCED_23_,X_INTRODUCED_24_,X_INTRODUCED_25_,X_INTRODUCED_26_,X_INTRODUCED_27_,X_INTRODUCED_28_,X_INTRODUCED_29_,X_INTRODUCED_30_,X_INTRODUCED_31_,X_INTRODUCED_32_,X_INTRODUCED_33_,X_INTRODUCED_34_,X_INTRODUCED_35_,X_INTRODUCED_36_,X_INTRODUCED_37_,X_INTRODUCED_38_,X_INTRODUCED_39_,X_INTRODUCED_40_,X_INTRODUCED_41_,X_INTRODUCED_42_,X_INTRODUCED_43_,X_INTRODUCED_44_,X_INTRODUCED_45_,X_INTRODUCED_46_];
array [1..14] of var int: X_INTRODUCED_53_ ::var_is_introduced  = [X_INTRODUCED_16_,X_INTRODUCED_17_,X_INTRODUCED_18_,X_INTRODUCED_19_,X_INTRODUCED_20_,X_INTRODUCED_21_,X_INTRODUCED_22_,X_INTRODUCED_23_,X_INTRODUCED_24_,X_INTRODUCED_25_,X_INTRODUCED_26_,X_INTRODUCED_27_,X_INTRODUCED_28_,X_INTRODUCED_29_];
array [1..15] of var int: X_INTRODUCED_61_ ::var_is_introduced  = [X_INTRODUCED_16_,X_INTRODUCED_17_,X_INTRODUCED_18_,X_INTRODUCED_19_,X_INTRODUCED_20_,X_INTRODUCED_21_,X_INTRODUCED_22_,X_INTRODUCED_23_,X_INTRODUCED_24_,X_INTRODUCED_25_,X_INTRODUCED_26_,X_INTRODUCED_27_,X_INTRODUCED_28_,X_INTRODUCED_29_,Objective];
constraint int_lin_le(X_INTRODUCED_50_,[X_INTRODUCED_19_,X_INTRODUCED_21_],-226);
constraint pumpkin_cumulative(X_INTRODUCED_53_,X_INTRODUCED_52_,X_INTRODUCED_51_,5);
constraint pumpkin_cumulative(X_INTRODUCED_53_,X_INTRODUCED_52_,X_INTRODUCED_54_,9);
constraint pumpkin_cumulative(X_INTRODUCED_53_,X_INTRODUCED_52_,X_INTRODUCED_55_,9);
constraint int_lin_le(X_INTRODUCED_50_,[X_INTRODUCED_16_,Objective],-4);
constraint int_lin_le(X_INTRODUCED_50_,[X_INTRODUCED_20_,Objective],-239);
constraint int_lin_le(X_INTRODUCED_50_,[X_INTRODUCED_26_,Objective],-53);
constraint int_lin_le(X_INTRODUCED_50_,[X_INTRODUCED_28_,Objective],-319);
constraint int_lin_le(X_INTRODUCED_50_,[X_INTRODUCED_29_,Objective],-6);
solve :: int_search(X_INTRODUCED_61_,smallest,indomain_min,complete) minimize Objective;
